p cnf 50 70
-12 -42 31 0
9 42 13 0
4 13 -22 0
-24 -23 -43 0
-8 25 38 0
-47 -37 7 0
-49 35 31 0
19 16 -1 0
-50 22 8 0
-17 -3 -25 0
-37 39 -18 0
-33 -30 -50 0
30 3 -29 0
31 -14 -49 0
33 -3 10 0
39 -46 -29 0
-4 24 -23 0
13 -48 9 0
-3 -12 22 0
-48 18 -12 0
-7 -26 -39 0
-43 -31 -35 0
-43 30 -38 0
-37 26 -15 0
-34 -11 -47 0
-34 18 7 0
-11 -6 9 0
-2 43 -24 0
36 -15 23 0
19 1 13 0
27 42 18 0
25 32 2 0
-11 -4 8 0
24 13 -26 0
-6 -45 15 0
-15 -1 -45 0
-49 43 -37 0
12 -13 -47 0
25 -23 9 0
-33 -45 -16 0
3 -11 7 0
50 46 -43 0
-10 -30 27 0
-37 46 -10 0
34 42 2 0
-5 34 50 0
22 -2 -37 0
8 -3 -23 0
10 11 -38 0
6 15 49 0
x 2 -7 9 14 17 19 20 21 -24 32 -35 36 -38 40 -41 -44 -45 47 -48 49 50 0
x 1 -4 -6 -7 9 10 12 -17 19 23 -25 26 27 -30 32 33 34 38 44 45 -46 -48 -49 -50 0
x -1 4 7 -10 -12 15 18 19 22 -24 26 29 31 -32 -33 39 40 -41 -42 -43 44 45 -46 -47 -48 -49 0
x -4 -5 6 7 8 10 11 13 -14 -15 16 -17 -20 22 23 24 25 26 -27 -28 -30 -33 -37 40 -43 -45 -46 47 -48 0
x 1 2 -3 4 -5 -6 7 -9 11 13 14 -19 20 -21 -24 -26 -27 29 30 -31 32 -34 36 38 44 45 -47 -50 0
x -1 -5 -6 10 11 -13 -18 19 -21 -23 28 29 -30 -32 -33 -35 36 -37 -38 -41 45 -46 -47 49 50 0
x 3 -4 5 6 8 -11 12 -14 15 17 -18 19 20 -22 -25 27 -31 -35 36 -37 38 40 -43 -44 -47 -50 0
x 4 -7 -8 9 -10 -12 14 15 -16 19 21 -22 25 27 -28 31 34 36 -38 -46 0
x 3 6 7 -8 -12 13 14 18 -19 -20 -24 -25 -27 28 -29 -30 -32 -34 -35 36 -39 40 -43 45 46 -47 -48 0
x -2 -3 6 7 -11 12 14 -15 -19 -20 21 22 -23 -24 25 -31 32 -34 -35 36 37 39 42 44 45 -47 -49 0
x 3 -5 6 7 -9 -10 11 -12 -13 14 24 28 29 -34 -37 -38 -39 40 -43 45 48 -50 0
x 1 2 -6 7 8 10 11 15 -16 -17 18 19 -20 -22 -24 -25 26 28 29 30 31 33 -34 36 -41 43 -44 -48 -49 0
x 1 6 -7 -10 -11 14 -15 20 -22 -26 -28 31 32 33 -34 -35 38 -39 40 42 43 -48 49 50 0
x 1 -2 -4 5 -7 8 -9 10 11 13 15 16 20 22 25 -26 -27 -28 29 30 31 -34 35 37 40 -41 -42 -45 -46 -47 -48 49 0
x 2 3 -4 7 -17 -18 19 -22 23 -24 -26 -27 -29 30 -31 32 -33 -36 -38 -39 -42 43 -45 -47 -50 0
x -4 7 -11 -14 -15 -18 -20 23 -27 -32 34 -37 40 -41 43 45 46 47 -48 0
x -1 -3 4 5 9 -10 -16 17 -19 22 23 -25 27 -29 -33 35 -38 41 44 -47 -50 0
x 2 5 13 -14 16 -17 -20 23 24 25 -26 -27 -29 -30 33 34 -37 38 -39 -44 -45 46 -47 49 0
x -1 -4 5 -8 9 -12 -14 -15 -16 -17 -19 21 23 -25 -26 30 34 36 -37 -39 -40 -41 -43 -44 -45 -47 -48 0
x -1 -3 -5 -10 -11 -12 -14 15 -16 -17 19 -21 -22 23 24 26 28 -33 -35 36 -42 49 0
